NAME : eilD76.66.715.tour
COMMENT : Length = 715
COMMENT : Found by LKH [Keld Helsgaun] Mon Dec 10 23:16:06 2018
TYPE : TOUR
DIMENSION : 80
TOUR_SECTION
1
27
8
36
20
60
15
54
12
39
66
67
13
80
68
35
47
9
53
14
55
58
16
28
46
78
5
69
3
75
48
30
6
38
21
71
72
61
37
70
22
49
31
76
77
17
50
24
57
42
44
2
74
63
29
62
23
65
43
64
34
7
79
18
41
45
33
51
26
56
32
11
59
73
40
10
19
25
4
52
-1
EOF
